SCIP Status        : solving was interrupted [time limit reached]
Total Time         :    3600.13
  solving          :    3600.01
  presolving       :       0.89 (included in solving)
  reading          :       0.12
  copying          :       0.30 (11 #copies) (minimal 0.02, maximal 0.05, average 0.03)
Original Problem   :
  Problem name     : benchmark/normal_60_36_39.design
  Variables        : 8305 (60 binary, 0 integer, 0 implicit integer, 8245 continuous)
  Constraints      : 11109 initial, 11109 maximal
  Objective        : minimize, 1 non-zeros (abs.min = 1, abs.max = 1)
Presolved Problem  :
  Problem name     : t_benchmark/normal_60_36_39.design
  Variables        : 11799 (60 binary, 0 integer, 0 implicit integer, 11739 continuous)
  Constraints      : 11109 initial, 11110 maximal
  Objective        : minimize, 1 non-zeros (abs.min = 1, abs.max = 1)
  Nonzeros         : 71576 constraint, 0 clique table
Presolvers         :   ExecTime  SetupTime  Calls  FixedVars   AggrVars   ChgTypes  ChgBounds   AddHoles    DelCons    AddCons   ChgSides   ChgCoefs
  boundshift       :       0.00       0.00      0          0          0          0          0          0          0          0          0          0
  convertinttobin  :       0.00       0.00      0          0          0          0          0          0          0          0          0          0
  domcol           :       0.00       0.00      1          0          0          0          0          0          0          0          0          0
  dualagg          :       0.00       0.00      0          0          0          0          0          0          0          0          0          0
  dualcomp         :       0.00       0.00      1          0          0          0          0          0          0          0          0          0
  dualinfer        :       0.00       0.00      0          0          0          0          0          0          0          0          0          0
  dualsparsify     :       0.00       0.00      1          0          0          0          0          0          0          0          0          0
  gateextraction   :       0.00       0.00      0          0          0          0          0          0          0          0          0          0
  implics          :       0.00       0.00      1          0          0          0          0          0          0          0          0          0
  inttobinary      :       0.00       0.00      0          0          0          0          0          0          0          0          0          0
  qpkktref         :       0.00       0.00      0          0          0          0          0          0          0          0          0          0
  redvub           :       0.00       0.00      0          0          0          0          0          0          0          0          0          0
  sparsify         :       0.00       0.00      1          0          0          0          0          0          0          0          0          0
  stuffing         :       0.00       0.00      0          0          0          0          0          0          0          0          0          0
  trivial          :       0.00       0.00      2        630          0          0          0          0          0          0          0          0
  tworowbnd        :       0.00       0.00      0          0          0          0          0          0          0          0          0          0
  dualfix          :       0.00       0.00      2        630          0          0          0          0          0          0          0          0
  genvbounds       :       0.00       0.00      0          0          0          0          0          0          0          0          0          0
  probing          :       0.25       0.00      1          0          0          0          0          0          0          0          0          0
  pseudoobj        :       0.00       0.00      0          0          0          0          0          0          0          0          0          0
  symmetry         :       0.11       0.00      1          0          0          0          0          0          0          0          0          0
  vbounds          :       0.00       0.00      0          0          0          0          0          0          0          0          0          0
  linear           :       0.05       0.02      3          0          0          0          0          0          0          0          0          0
  nonlinear        :       0.41       0.09      4          0          0          0       1296          0          0          0          0          0
  benders          :       0.00       0.00      0          0          0          0          0          0          0          0          0          0
  components       :       0.01       0.00      1          0          0          0          0          0          0          0          0          0
  root node        :          -          -      -          0          -          -      18491          -          -          -          -          -
Constraints        :     Number  MaxNumber  #Separate #Propagate    #EnfoLP    #EnfoRelax  #EnfoPS    #Check   #ResProp    Cutoffs    DomReds       Cuts    Applied      Conss   Children
  benderslp        :          0          0          0          0        691          0          0        135          0          0          0          0          0          0          0
  integral         :          0          0          0          0        691          0          0        135          0          0        977          0          0          0       1156
  linear           :       7652+      7653         23      34661          2          0          0        129          0       2369     329531          0          0          0          0
  nonlinear        :       3457       3457       1969      32292         73          0          0         66          0       3443     543624     980757     170981          0          0
  benders          :          0          0          0          0          2          0          0          6          0          0          0          0          0          0          0
  countsols        :          0          0          0          0          2          0          0          6          0          0          0          0          0          0          0
  components       :          0          0          0          0          0          0          0          0          0          0          0          0          0          0          0
Constraint Timings :  TotalTime  SetupTime   Separate  Propagate     EnfoLP     EnfoPS     EnfoRelax   Check    ResProp    SB-Prop
  benderslp        :       0.00       0.00       0.00       0.00       0.00       0.00       0.00       0.00       0.00       0.00
  integral         :     255.78       0.00       0.00       0.00     255.78       0.00       0.00       0.00       0.00       0.00
  linear           :       3.43       0.02       0.03       2.66       0.00       0.00       0.00       0.28       0.00       0.44
  nonlinear        :      33.47       0.09      17.14      13.25       0.45       0.00       0.00       0.34       0.00       2.20
  benders          :       0.00       0.00       0.00       0.00       0.00       0.00       0.00       0.00       0.00       0.00
  countsols        :       0.00       0.00       0.00       0.00       0.00       0.00       0.00       0.00       0.00       0.00
  components       :       0.00       0.00       0.00       0.00       0.00       0.00       0.00       0.00       0.00       0.00
Propagators        : #Propagate   #ResProp    Cutoffs    DomReds
  dualfix          :          4          0          0          0
  genvbounds       :          0          0          0          0
  nlobbt           :          0          0          0          0
  obbt             :          0          0          0          0
  probing          :          0          0          0          0
  pseudoobj        :       6109          0          0         14
  redcost          :       3212          0          0        336
  rootredcost      :          6          0          0      15019
  symmetry         :          0          0          0          0
  vbounds          :       1603          0          0          0
Propagator Timings :  TotalTime  SetupTime   Presolve  Propagate    ResProp    SB-Prop
  dualfix          :       0.00       0.00       0.00       0.00       0.00       0.00
  genvbounds       :       0.07       0.00       0.00       0.07       0.00       0.00
  nlobbt           :       0.00       0.00       0.00       0.00       0.00       0.00
  obbt             :       0.00       0.00       0.00       0.00       0.00       0.00
  probing          :       0.25       0.00       0.25       0.00       0.00       0.00
  pseudoobj        :       0.01       0.00       0.00       0.01       0.00       0.00
  redcost          :       1.36       0.00       0.00       1.36       0.00       0.00
  rootredcost      :       0.05       0.00       0.00       0.03       0.00       0.02
  symmetry         :       0.14       0.00       0.11       0.03       0.00       0.00
  vbounds          :       0.03       0.00       0.00       0.03       0.00       0.00
Conflict Analysis  :       Time      Calls    Success    DomReds  Conflicts   Literals    Reconvs ReconvLits   Dualrays   Nonzeros   LP Iters   (pool size: [--,--])
  propagation      :       0.00          0          0          -          0        0.0          0        0.0          -          -          -
  infeasible LP    :       0.00          0          0          -          0        0.0          0        0.0          1      747.0          0
  bound exceed. LP :       0.48        107          1          -          0        0.0          0        0.0          0        0.0         58
  strong branching :       0.00          0          0          -          0        0.0          0        0.0          -          -          0
  pseudo solution  :       0.00          0          0          -          0        0.0          0        0.0          -          -          -
  applied globally :       0.00          -          -          0          0        0.0          -          -          1          -          -
  applied locally  :          -          -          -          0          0        0.0          -          -          0          -          -
Separators         :   ExecTime  SetupTime      Calls  RootCalls    Cutoffs    DomReds  FoundCuts ViaPoolAdd  DirectAdd    Applied ViaPoolApp  DirectApp      Conss
  cut pool         :       0.00          -          0          0          -          -          0          0          -          -          -          -          -    (maximal pool size:          0)
  aggregation      :       1.41       0.00         59         23          0          0          0          0          0          0          0          0          0
  > cmir           :          -          -          -          -          -          -          -          0          0          0          0          0          -
  > flowcover      :          -          -          -          -          -          -          -          0          0          0          0          0          -
  > knapsackcover  :          -          -          -          -          -          -          -          0          0          0          0          0          -
  cgmip            :       0.00       0.00          0          0          0          0          0          0          0          0          0          0          0
  clique           :       0.00       0.00          1          1          0          0          0          0          0          0          0          0          0
  closecuts        :       0.00       0.00          0          0          0          0          0          0          0          0          0          0          0
  convexproj       :       0.00       0.00          0          0          0          0          0          0          0          0          0          0          0
  disjunctive      :       0.00       0.00          0          0          0          0          0          0          0          0          0          0          0
  eccuts           :       0.00       0.00          0          0          0          0          0          0          0          0          0          0          0
  gauge            :       0.00       0.00          0          0          0          0          0          0          0          0          0          0          0
  gomory           :       0.43       0.00         46         10          0          0          0          0          0          0          0          0          0
  > gomorymi       :          -          -          -          -          -          -          -          0          0          0          0          0          -
  > strongcg       :          -          -          -          -          -          -          -          0          0          0          0          0          -
  impliedbounds    :       0.04       0.00         59         23          0          0          0          0          0          0          0          0          0
  interminor       :       0.00       0.00          0          0          0          0          0          0          0          0          0          0          0
  intobj           :       0.00       0.00          0          0          0          0          0          0          0          0          0          0          0
  mcf              :       0.03       0.00          3          3          0          0          0          0          0          0          0          0          0
  minor            :       0.00       0.00          0          0          0          0          0          0          0          0          0          0          0
  mixing           :       0.00       0.00         59         23          0          0          0          0          0          0          0          0          0
  oddcycle         :       0.00       0.00          0          0          0          0          0          0          0          0          0          0          0
  rapidlearning    :       0.00       0.00          0          0          0          0          0          0          0          0          0          0          0
  rlt              :       0.03       0.00         10         10          0          0          0          0          0          0          0          0          0
  zerohalf         :       0.34       0.00         56         20          0          0          0          0          0          0          0          0          0
Cutselectors       :   ExecTime  SetupTime      Calls  RootCalls   Selected     Forced   Filtered  RootSelec   RootForc   RootFilt 
  hybrid           :       4.03       0.00       1926         21     163820          0     809769      27320          0      11140
Pricers            :   ExecTime  SetupTime      Calls       Vars
  problem variables:       0.00          -          0          0
Branching Rules    :   ExecTime  SetupTime   BranchLP  BranchExt   BranchPS    Cutoffs    DomReds       Cuts      Conss   Children
  allfullstrong    :       0.00       0.00          0          0          0          0          0          0          0          0
  cloud            :       0.00       0.00          0          0          0          0          0          0          0          0
  distribution     :       0.00       0.00          0          0          0          0          0          0          0          0
  fullstrong       :       0.00       0.00          0          0          0          0          0          0          0          0
  inference        :       0.00       0.00          0          0          0          0          0          0          0          0
  leastinf         :       0.00       0.00          0          0          0          0          0          0          0          0
  lookahead        :       0.00       0.00          0          0          0          0          0          0          0          0
  mostinf          :       0.00       0.00          0          0          0          0          0          0          0          0
  multaggr         :       0.00       0.00          0          0          0          0          0          0          0          0
  nodereopt        :       0.00       0.00          0          0          0          0          0          0          0          0
  pscost           :       0.00       0.00          0          0          0          0          0          0          0          0
  random           :       0.00       0.00          0          0          0          0          0          0          0          0
  relpscost        :     255.78       0.00        618          0          0          0        977          0          0       1156
  vanillafullstrong:       0.00       0.00          0          0          0          0          0          0          0          0
Primal Heuristics  :   ExecTime  SetupTime      Calls      Found       Best
  LP solutions     :       0.01          -          -          2          2
  relax solutions  :       0.00          -          -          0          0
  pseudo solutions :       0.00          -          -          0          0
  strong branching :       0.01          -          -          0          0
  actconsdiving    :       0.00       0.00          0          0          0
  adaptivediving   :       9.43       0.00          2          0          0
  alns             :       1.78       0.00          5          0          0
  bound            :       0.00       0.00          0          0          0
  clique           :       0.00       0.00          0          0          0
  coefdiving       :       0.00       0.00          0          0          0
  completesol      :       0.00       0.00          0          0          0
  conflictdiving   :       9.01       0.00          1          0          0
  crossover        :      95.26       0.00          2          0          0
  dins             :       0.00       0.00          0          0          0
  distributiondivin:       8.87       0.00          1          0          0
  dps              :       0.00       0.00          0          0          0
  dualval          :       0.00       0.00          0          0          0
  farkasdiving     :       0.00       0.00          0          0          0
  feaspump         :      21.18       0.00          1          0          0
  fixandinfer      :       0.00       0.00          0          0          0
  fracdiving       :      14.81       0.00          2          0          0
  gins             :       0.01       0.00          0          0          0
  guideddiving     :       9.85       0.00          1          0          0
  indicator        :       0.00       0.00          0          0          0
  indicatordiving  :       0.00       0.00          0          0          0
  intdiving        :       0.00       0.00          0          0          0
  intshifting      :       8.22       0.00          2          0          0
  linesearchdiving :      10.11       0.00          1          0          0
  localbranching   :       0.00       0.00          0          0          0
  locks            :       0.54       0.00          1          0          0
  lpface           :       0.00       0.00          0          0          0
  mpec             :     164.52       0.00         11          1          1
  multistart       :       0.00       0.00          0          0          0
  mutation         :       0.00       0.00          0          0          0
  nlpdiving        :       1.93       0.00          1          0          0
  objpscostdiving  :     179.43       0.00          1          0          0
  octane           :       0.00       0.00          0          0          0
  ofins            :       0.01       0.00          0          0          0
  oneopt           :       0.03       0.00          7          0          0
  padm             :       0.00       0.00          0          0          0
  proximity        :       0.00       0.00          0          0          0
  pscostdiving     :       6.93       0.00          1          0          0
  randrounding     :       1.50       0.00         93          0          0
  rens             :       0.00       0.00          0          0          0
  reoptsols        :       0.00       0.00          0          0          0
  repair           :       0.00       0.00          0          0          0
  rins             :     331.06       0.00          4          0          0
  rootsoldiving    :      16.49       0.00          1          0          0
  rounding         :       0.75       0.00        664          0          0
  shiftandpropagate:       0.45       0.00          1          0          0
  shifting         :       0.69       0.00        203          0          0
  simplerounding   :       0.00       0.00          0          0          0
  subnlp           :      22.46       0.00          8          4          4
  trivial          :       0.03       0.00          2          0          0
  trivialnegation  :       0.00       0.00          0          0          0
  trustregion      :       0.00       0.00          0          0          0
  trysol           :       0.00       0.00          0          0          0
  twoopt           :       0.00       0.00          0          0          0
  undercover       :       8.42       0.00          1          0          0
  vbounds          :       0.00       0.00          0          0          0
  veclendiving     :       2.48       0.00          1          0          0
  zeroobj          :       0.00       0.00          0          0          0
  zirounding       :       0.07       0.00        578          0          0
  other solutions  :          -          -          -          0          -
Diving (single)    :      Calls      Nodes   LP Iters Backtracks  Conflicts   MinDepth   MaxDepth   AvgDepth  RoundSols  NLeafSols  MinSolDpt  MaxSolDpt  AvgSolDpt
  actconsdiving    :          0          -          -          -          -          -          -          -          -          -          -          -          -
  coefdiving       :          0          -          -          -          -          -          -          -          -          -          -          -          -
  conflictdiving   :          1         16      18372          0          0         24         24       24.0          0          -          -          -          -
  distributiondivin:          1         21      17703          0          0         26         26       26.0          0          -          -          -          -
  farkasdiving     :          0          -          -          -          -          -          -          -          -          -          -          -          -
  fracdiving       :          2        101      23129          0          0         59         60       59.5          0          -          -          -          -
  guideddiving     :          1         48      12503          0          0         60         60       60.0          0          -          -          -          -
  indicatordiving  :          0          -          -          -          -          -          -          -          -          -          -          -          -
  linesearchdiving :          1         49      11843          0          0         60         60       60.0          0          -          -          -          -
  pscostdiving     :          1         54      15204          0          0         60         60       60.0          0          -          -          -          -
  veclendiving     :          1         39       6284          0          0         41         41       41.0          0          -          -          -          -
Diving (adaptive)  :      Calls      Nodes   LP Iters Backtracks  Conflicts   MinDepth   MaxDepth   AvgDepth  RoundSols  NLeafSols  MinSolDpt  MaxSolDpt  AvgSolDpt
  actconsdiving    :          0          -          -          -          -          -          -          -          -          -          -          -          -
  coefdiving       :          1         34       2808          0          0         41         41       41.0          0          -          -          -          -
  conflictdiving   :          0          -          -          -          -          -          -          -          -          -          -          -          -
  distributiondivin:          0          -          -          -          -          -          -          -          -          -          -          -          -
  farkasdiving     :          0          -          -          -          -          -          -          -          -          -          -          -          -
  fracdiving       :          0          -          -          -          -          -          -          -          -          -          -          -          -
  guideddiving     :          0          -          -          -          -          -          -          -          -          -          -          -          -
  indicatordiving  :          0          -          -          -          -          -          -          -          -          -          -          -          -
  linesearchdiving :          1         49      10068          0          0         59         59       59.0          0          -          -          -          -
  pscostdiving     :          0          -          -          -          -          -          -          -          -          -          -          -          -
  veclendiving     :          0          -          -          -          -          -          -          -          -          -          -          -          -
Neighborhoods      :      Calls  SetupTime  SolveTime SolveNodes       Sols       Best       Exp3  EpsGreedy        UCB TgtFixRate  Opt  Inf Node Stal  Sol  Usr Othr Actv
  rens             :          1       0.05       0.29          0          0          0    0.00000   -1.00000    1.00000      0.900    0    0    0    0    0    0    1    1
  rins             :          0       0.00       0.00          0          0          0    0.00000   -1.00000    1.00000      0.900    0    0    0    0    0    0    0    1
  mutation         :          1       0.06       0.26          0          0          0    0.00000   -1.00000    1.00000      0.900    0    0    0    0    0    0    1    1
  localbranching   :          0       0.00       0.00          0          0          0    0.00000   -1.00000    1.00000      0.900    0    0    0    0    0    0    0    1
  crossover        :          1       0.06       0.32          0          0          0    0.00000   -1.00000    1.00000      0.900    0    0    0    0    0    0    1    1
  proximity        :          0       0.00       0.00          0          0          0    0.00000   -1.00000    1.00000      0.900    0    0    0    0    0    0    0    1
  zeroobjective    :          1       0.02       0.00          0          0          0    0.00000   -1.00000    1.00000      0.900    0    0    0    0    0    0    1    1
  dins             :          1       0.11       0.46          0          0          0    0.00000   -1.00000    1.00000      0.900    0    0    0    0    0    0    1    1
  trustregion      :          0       0.00       0.00          0          0          0    0.00000   -1.00000    1.00000      0.900    0    0    0    0    0    0    0    0
Expressions        :   #IntEval  IntEvalTi   #RevProp  RevPropTi    DomReds    Cutoffs  #Estimate  EstimTime  Branching  #Simplify SimplifyTi Simplified
  pow              :    1653372       0.49     651468       0.17     839434          0      67845       0.02          0       8280       0.00          0
  prod             :    1265986       0.49      10830       0.01       1900          0          0       0.00          0       4322       0.00       2160
  sum              :    1533042       0.53    1214291       0.46      59065        668       1297       0.00          0       8210       0.00       1297
  var              :    3310766       0.86          0       0.00          0          0          0       0.00          0      19513       0.00          0
  varidx           :          0       0.00          0       0.00          0          0          0       0.00          0          0       0.00          0
Nonlinear Conshdlr :   WeakSepa  TightenLP DespTghtLP DespBranch DespCutoff    ForceLP  CanonTime
  enforce          :       3592          0          0          0          0          0
  presolve         :                                                                         0.26
Nlhdlrs            :    Detects  DetectAll DetectTime   #IntEval  IntEvalTi   #RevProp  RevPropTi    DomReds    Cutoffs   #Enforce   EnfoTime       Cuts  Branching
  soc              :       2160       2160       0.01          0       0.00          0       0.00          0          0    2606455       5.21     912717          0
  convex           :          1          1       0.00          0       0.00          0       0.00          0          0       1492       0.02       1491          0
  concave          :          0          0       0.00          0       0.00          0       0.00          0          0          0       0.00          0          0
  quotient         :          0          0       0.01          0       0.00          0       0.00          0          0          0       0.00          0          0
  quadratic        :          0          0       0.04          0       0.00          0       0.00          0          0          0       0.00          0          0
  default          :      16119      80595       0.01    4439206       3.40    1897616       4.64     900399        668      69142       0.12      66549          0
  bilinear         :          0          0       0.00          0       0.00          0       0.00          0          0          0       0.00          0          0
  perspective      :          0          0       0.01          0       0.00          0       0.00          0          0          0       0.00          0          0
LP                 :       Time      Calls Iterations  Iter/call   Iter/sec  Time-0-It Calls-0-It    ItLimit
  primal LP        :     488.59        595          0       0.00       0.00     488.59        595
  dual LP          :    1878.34       3238    1814439     578.40     965.98       1.78        101
  lex dual LP      :       0.00          0          0       0.00          -
  barrier LP       :       0.00          0          0       0.00          -       0.00          0
  resolve instable :       0.00          0          0       0.00          -
  diving/probing LP:     295.91        150     368314    2455.43    1244.68
  strong branching :     249.15        395     328360     831.29    1317.92          -          -        569
    (at root node) :          -         50      50000    1000.00          -
  conflict analysis:       0.08          6         58       9.67     725.00
NLP relaxation     :
  solve time       :       1.91 (1 calls)
  convexity        :  nonconvex (740 linear rows, 1297 convex ineq., 2160 nonconvex ineq., 0 nonlinear eq. or two-sided ineq.)
NLP Solvers        :  #Problems  ProblemTi    #Solves  SolveTime      #Iter  Time/Iter      #Okay #TimeLimit #IterLimit #LObjLimit #Interrupt  #NumError #EvalError  #OutOfMem #LicenseEr #OtherTerm   #GlobOpt    #LocOpt  #Feasible #LocInfeas #GlobInfea #Unbounded   #Unknown
  ipopt            :         27       1.08         35     183.42       3271       0.06         28          0          7          0          0          0          0          0          0          0          0         14          0         13          0          0          8
B&B Tree           :
  number of runs   :          1
  nodes            :       1082 (578 internal, 504 leaves)
  feasible leaves  :          2
  infeas. leaves   :          0
  objective leaves :        501
  nodes (total)    :       1082 (578 internal, 504 leaves)
  nodes left       :         76
  max depth        :         58
  max depth (total):         58
  backtracks       :         52 (4.8%)
  early backtracks :          0 (0.0%)
  nodes exc. ref.  :          0 (0.0%)
  delayed cutoffs  :          0
  repropagations   :          5 (0 domain reductions, 0 cutoffs)
  avg switch length:       2.61
  switching time   :     456.74
Estim. Tree Size   :       2162
Estimation Tree    : 1157 nodes (1081 visited, 578 internal, 503 leaves, 76 open), weight: 0.0000 completed 0.0291
Estimations        :      estim      value      trend resolution     smooth
  wbe              : 11805292621          -          -          -          -
  tree-profile     :         -1          -          -          -          -
  gap              :       2162    0.81990    0.00000          1       2161
  tree-weight      :       2162    0.00000    0.00000          1       2161
  leaf-frequency   :       2277    0.46485    0.00006          1       4917
  ssg              :    1410090    0.95406   -0.00000          1    1338083
  open-nodes       :       5574   76.00000   -0.03327          1       4720
Root Node          :
  First LP value   : -1.49427266359410e+00
  First LP Iters   :      26644 (1946.24 Iter/sec)
  First LP Time    :      13.69
  Final Dual Bound : -4.43689802068268e-01
  Final Root Iters :     102184
  Root LP Estimate : +5.68324010115306e+00
Solution           :
  Solutions found  :          7 (7 improvements)
  First Solution   : -2.98066867879578e-01   (in run 1, after 1 nodes, 47.67 seconds, depth 0, found by <locks>)
  Gap First Sol.   :     401.32 %
  Gap Last Sol.    :      22.50 %
  Primal Bound     : -3.62203060415461e-01   (in run 1, after 96 nodes, 643.53 seconds, depth 30, found by <relaxation>)
  Dual Bound       : -4.41762838432869e-01
  Gap              :      21.97 %
Integrals          :      Total       Avg%
  primal-dual      :   74989.12      20.83
  primal-ref       :          -          - (not evaluated)
  dual-ref         :          -          - (not evaluated)
